certificates/rado_a9_c142_N17.cnf
c Rad2 upper bound instance: x1 + 9*x2 - x3 = 142, interval [1,17]
p cnf 17 64
1 3 16 0
-1 -3 -16 0
1 12 17 0
-1 -12 -17 0
2 4 16 0
-2 -4 -16 0
2 13 17 0
-2 -13 -17 0
3 5 16 0
-3 -5 -16 0
3 14 17 0
-3 -14 -17 0
4 6 16 0
-4 -6 -16 0
4 15 17 0
-4 -15 -17 0
5 7 16 0
-5 -7 -16 0
5 16 17 0
-5 -16 -17 0
6 8 16 0
-6 -8 -16 0
6 17 0
-6 -17 0
7 9 16 0
-7 -9 -16 0
1 8 15 0
-1 -8 -15 0
8 10 16 0
-8 -10 -16 0
2 9 15 0
-2 -9 -15 0
9 11 16 0
-9 -11 -16 0
3 10 15 0
-3 -10 -15 0
10 12 16 0
-10 -12 -16 0
4 11 15 0
-4 -11 -15 0
11 13 16 0
-11 -13 -16 0
5 12 15 0
-5 -12 -15 0
12 14 16 0
-12 -14 -16 0
6 13 15 0
-6 -13 -15 0
13 15 16 0
-13 -15 -16 0
7 14 15 0
-7 -14 -15 0
14 16 0
-14 -16 0
8 15 0
-8 -15 0
15 16 17 0
-15 -16 -17 0
9 15 16 0
-9 -15 -16 0
1 14 17 0
-1 -14 -17 0
10 15 17 0
-10 -15 -17 0
