certificates/rado_a9_c142_N17.drat
-16 -17 0
-17 0
6 0
16 0
-14 0
-4 0
-8 0
3 0
1 0
15 0
0
